NAME: swiss42
TYPE: TSP
COMMENT: 42 Staedte Schweiz (Fricker)
DIMENSION: 42
EDGE_WEIGHT_TYPE: EXPLICIT
EDGE_WEIGHT_FORMAT: LOWER_DIAG_ROW 
EDGE_WEIGHT_SECTION   
   0  15   0  30  34   0  23  23  11   0  32  27  18  11   0  55  40  57  48  40   0
  33  19  36  26  20  23   0  37  32  65  54  58  55  45   0
  92  93  62  70  67  96  85 124   0 114 117  84  94  92 123 111 149  28   0
  92  88  64  69  61  78  75 118  29  54   0 110 100  89  89  78  75  82 126  68  91  39   0
  96  87  76  75  65  62  69 113  63  88  34  14   0  90  75  93  84  76  36  60  80 122 150  99  80  72   0
  74  63  95  84  83  56  63  42 148 174 134 129 117  59   0
  76  67 100  89  89  66  70  42 155 181 142 139 128  71  11   0
  82  71 104  92  91  63  71  49 156 182 141 135 124  63   8  11   0
  67  69  98  89  95  95  85  40 159 181 157 167 153 116  63  54  65   0
  72  62  57  54  43  37  44  87  67  95  44  39  26  56  93 103 100 127   0
  78  63  88  78  72  34  52  60 129 157 110  98  88  25  35  46  39  92  67   0
  82  96  99  99 110 137 115  94 148 159 161 187 174 170 135 130 140  83 153 152   0
 159 164 130 141 141 174 161 195  78  50 103 136 136 201 223 230 232 224 145 207 188   0
 122 132 100 111 116 156 136 158  80  65 109 148 142 189 195 198 203 180 139 188 128  65   0
 131 131 101 109 105 129 122 163  39  27  52  81  82 151 184 192 192 199  96 162 184  57  91   0
 206 212 179 190 190 224 210 242 129 102 154 186 187 252 273 279 281 269 196 258 222  51  94 106   0
 112 106  86  89  81  90  91 135  46  65  22  28  32 104 146 155 153 175  53 119 183 109 126  53 158   0
  57  44  51  44  34  15  25  65  82 110  63  61  48  44  71  80  78 106  23  48 139 160 145 115 211  75   0
  28  33   4  11  19  59  37  63  65  87  68  92  79  95  95  99 103  95  60  89  95 132 100 104 180  89  53   0
  43  51  18  29  35  75  54  79  55  73  66  97  85 111 113 117 121 109  70 107  95 116  82  94 163  88  68  18   0
  70  77  43  54  57  96  78 106  40  50  61  98  89 130 138 143 147 135  81 129 110  90  60  74 136  83  86  44  27   0
  65  75  45  56  63 103  81 101  61  68  81 117 106 138 138 141 146 125  95 134  91 102  57  94 145 103  95  45  27  21   0
  66  72  95  89  97 105  90  50 157 176 158 173 159 130  81  74  85  21 134 108  62 217 167 196 259 178 114  92 103 128 115   0
  37  52  45  47  58  91  68  66  97 112 107 134 121 127 107 107 115  80 101 114  54 148  99 134 190 129  90  42  42  62  46  69   0
 103 118 115 118 129 158 136 118 159 166 175 204 191 192 159 155 164 107 172 176  24 188 126 192 218 197 160 112 109 119  98  86  71   0
  84  99  93  96 107 139 116 104 135 142 151 181 168 174 146 143 152 100 149 159  23 168 106 168 200 173 139  89  85  96  75  81  49  24   0
 125 132 152 147 156 164 150 109 212 229 216 232 219 186 132 122 133  71 194 163  81 264 208 251 302 236 173 149 157 179 163  60 117  94 104   0
 129 132 159 151 158 156 147 103 221 241 219 229 216 172 113 102 112  63 190 147 110 281 230 260 323 238 168 156 168 192 179  65 133 127 133  39   0
  72  67 100  90  92  78  76  36 159 184 150 153 140  90  32  22  33  33 115  66 113 231 194 197 278 166  92  99 115 142 136  54  98 137 127 100  81   0
 126 139 112 122 129 169 148 160 110  99 137 176 168 205 200 202 208 173 160 200 108 100  36 126 120 156 162 111  94  79  67 158  95 100  85 190 216 193   0
 141 148 114 126 127 163 147 178  72  46 100 137 134 193 209 215 218 205 138 197 164  26  39  64  65 111 150 116  98  72  81 195 127 163 143 241 259 214  74   0
 183 186 153 163 161 191 180 218  95  69 115 143 145 214 243 250 251 249 159 224 217  30  94  64  49 115 176 155 140 115 129 243 175 218 197 292 307 253 129  55   0
 124 122  94 101  95 115 111 153  35  38  37  62  64 135 171 179 178 191  80 147 184  75 103  19 124  34 101  97  90  74  95 190 132 194 170 246 253 187 137  80  81   0
EOF
